14482.51,48.09,54.63
13878.94,50.18,57.0
13152.57,52.95,60.15
13009.19,53.53,60.81
14479.92,48.09,54.64
14295.54,48.71,55.34
12465.23,55.87,63.46
14584.53,47.75,54.24
13885.58,50.15,56.97
13756.65,50.62,57.51
14879.04,46.8,53.17
13316.09,52.3,59.41
13596.12,51.22,58.19
13896.43,50.11,56.93
13223.4,52.66,59.83
13752.35,50.64,57.53
14070.68,49.49,56.22
14195.34,49.06,55.73
13325.88,52.26,59.37
12932.21,53.85,61.17
